Route #1: 46 118 17 18 81 112 124 126 127 128 129 113 116 131 117 119 130 19
Route #2: 132 125 123 122 121 110 111
Route #3: 120 109 108 107 106 114 115
Route #4: 65 71 66 74 76 134 32 48 49 50 51 52 53 55 56 58 57 105 104 36 35 101 102 103 54 1 47 72
Route #5: 61 62 100 99 98 97 96 38 39 37 95 40 44 43 41 3 42 4 5 9 8 6 7 11 12 10 2 45 93 94
Route #6: 21 25 26 27 28 60 59 31 30 29 92 90 89 16 13 15 14 88 87 86 85 84 83
Route #7: 82 20 91 22 24 23 75 34 63 79 67 70 69 68 80 33 133 78 64 77 73
Cost 1322
